(declare-fun Data.Type.Coercion.Coercion () Int)
(declare-fun VV$35$$35$F$35$$35$7 () Int)
(declare-fun GHC.Stack.Types.FreezeCallStack () Int)
(declare-fun GHC.Word.W64$35$ () Int)
(declare-fun Data.ByteString.Internal.Type.BS () Int)
(declare-fun Data.Semigroup.Internal.Any () Int)
(declare-fun GHC.TypeNats.SomeNat () Int)
(declare-fun GHC.IO.Unmasked () Int)
(declare-fun GHC.MVar.MVar () Int)
(declare-fun Control.Concurrent.QSemN.$36$WQSemN () Int)
(declare-fun Data.Type.Equality.$36$WRefl () Int)
(declare-fun autolen () Int)
(declare-fun lq_anf$36$$35$$35$7205759403792815228$35$$35$d5CQ () Int)
(declare-fun GHC.Stack.Types.pushCallStack () Int)
(declare-fun lq_karg$36$lq_anf$36$$35$$35$7205759403792815231$35$$35$d5CT$35$$35$k_$35$$35$810 () Bool)
(declare-fun Data.Either.Right () Int)
(declare-fun GHC.Stack.Types.PushCallStack () Int)
(declare-fun GHC.Word.W16$35$ () Int)
(declare-fun GHC.Base.$43$$43$ () Int)
(declare-fun lq_anf$36$$35$$35$7205759403792815220$35$$35$d5CI () Int)
(declare-fun GHC.Types.True () Bool)
(declare-fun GHC.Base.. () Int)
(declare-fun lq_tmp$36$x$35$$35$625 () Int)
(declare-fun head () Int)
(declare-fun Data.Text.Encoding.Error.DecodeError () Int)
(declare-fun lq_tmp$36$x$35$$35$541 () Int)
(declare-fun tail () Int)
(declare-fun GHC.Classes.compare () Int)
(declare-fun lq_tmp$36$x$35$$35$800 () Int)
(declare-fun lq_anf$36$$35$$35$7205759403792815229$35$$35$d5CR () Int)
(declare-fun GHC.Real.quot () Int)
(declare-fun lq_anf$36$$35$$35$7205759403792815198$35$$35$d5Cm () Str)
(declare-fun lq_anf$36$$35$$35$7205759403792815221$35$$35$d5CJ () Int)
(declare-fun lq_anf$36$$35$$35$7205759403792815219$35$$35$d5CH () Int)
(declare-fun lq_anf$36$$35$$35$7205759403792815230$35$$35$d5CS () Int)
(declare-fun VV$35$$35$F$35$$35$3 () Int)
(declare-fun GHC.Real.$36$W$58$$37$ () Int)
(declare-fun lq_karg$36$lq_anf$36$$35$$35$7205759403792815234$35$$35$d5CW$35$$35$k_$35$$35$848 () Str)
(declare-fun GHC.Float.sin () Int)
(declare-fun lq_anf$36$$35$$35$7205759403792815213$35$$35$d5CB () Int)
(declare-fun x_Tuple21 () Int)
(declare-fun GHC.TypeLits.SomeSymbol () Int)
(declare-fun GHC.IO.Handle.Types.FileHandle () Int)
(declare-fun GHC.Generics.K1 () Int)
(declare-fun Data.Text.Internal.$36$WText () Int)
(declare-fun lq_anf$36$$35$$35$7205759403792815202$35$$35$d5Cq () Str)
(declare-fun Data.ByteString.Lazy.Internal.Chunk () Int)
(declare-fun VV$35$$35$F$35$$35$2 () Int)
(declare-fun lq_tmp$36$x$35$$35$547 () Int)
(declare-fun RefinementHelper.filterInvalid () Int)
(declare-fun GHC.IO.Exception.ExitSuccess () Int)
(declare-fun VV$35$$35$F$35$$35$1 () Int)
(declare-fun lit$36$src$47$RefinementHelper.hs () Str)
(declare-fun lq_anf$36$$35$$35$7205759403792815216$35$$35$d5CE () Str)
(declare-fun GHC.Real.fromRational () Int)
(declare-fun GHC.Real.recip () Int)
(declare-fun GHC.Num.abs () Int)
(declare-fun GHC.Conc.Sync.ThreadId () Int)
(declare-fun GHC.IO.Exception.IOError () Int)
(declare-fun GHC.Float.$42$$42$ () Int)
(declare-fun lq_anf$36$$35$$35$7205759403792815203$35$$35$d5Cr () Str)
(declare-fun x_Tuple22 () Int)
(declare-fun lq_anf$36$$35$$35$7205759403792815205$35$$35$d5Ct () Int)
(declare-fun Data.Semigroup.Internal.Alt () Int)
(declare-fun lq_karg$36$lq_anf$36$$35$$35$7205759403792815232$35$$35$d5CU$35$$35$k_$35$$35$848 () Bool)
(declare-fun GHC.Real.$47$ () Int)
(declare-fun Data.Typeable.Internal.$36$WSomeTypeRep () Int)
(declare-fun GHC.Base.$36$ () Int)
(declare-fun fldList () Int)
(declare-fun GHC.Weak.Weak () Int)
(declare-fun GHC.Types.I$35$ () Int)
(declare-fun lq_anf$36$$35$$35$7205759403792815208$35$$35$d5Cw () Int)
(declare-fun lq_karg$36$lq_anf$36$$35$$35$7205759403792815229$35$$35$d5CR$35$$35$k_$35$$35$848 () Int)
(declare-fun n$35$$35$a1sd () Int)
(declare-fun GHC.IO.Handle.Types.$36$WFileHandle () Int)
(declare-fun lq_anf$36$$35$$35$7205759403792815204$35$$35$d5Cs () Str)
(declare-fun GHC.Num.negate () Int)
(declare-fun GHC.IO.Exception.ExitFailure () Int)
(declare-fun GHC.Num.Integer.IN () Int)
(declare-fun lq_karg$36$VV$35$$35$809$35$$35$k_$35$$35$810 () Int)
(declare-fun GHC.IO.Handle.Types.DuplexHandle () Int)
(declare-fun lq_anf$36$$35$$35$7205759403792815218$35$$35$d5CG () Str)
(declare-fun GHC.Enum.C$58$Bounded () Int)
(declare-fun lqdc$35$$35$$36$select$35$$35$GHC.Maybe.Just$35$$35$1 () Int)
(declare-fun GHC.Float.atanh () Int)
(declare-fun GHC.IO.Handle.Types.$36$WDuplexHandle () Int)
(declare-fun lq_tmp$36$x$35$$35$844 () Int)
(declare-fun isPrime () Int)
(declare-fun GHC.IO.IOMode.ReadMode () Int)
(declare-fun GHC.Types.$58$ () Int)
(declare-fun Data.Either.Left () Int)
(declare-fun Data.Semigroup.Internal.Sum () Int)
(declare-fun GHC.Float.atan () Int)
(declare-fun lq_anf$36$$35$$35$7205759403792815217$35$$35$d5CF () Int)
(declare-fun isLeft () Int)
(declare-fun GHC.Float.log () Int)
(declare-fun GHC.Types.Module () Int)
(declare-fun GHC.OverloadedLabels.C$58$IsLabel () Int)
(declare-fun lit$36$Invalid () Str)
(declare-fun totalityError () Int)
(declare-fun GHC.Num.fromInteger () Int)
(declare-fun GHC.Real.fromIntegral () Int)
(declare-fun GHC.Float.asin () Int)
(declare-fun ds_d5BW () Int)
(declare-fun fix$36$$36$dIP_a1te () Int)
(declare-fun lq_tmp$36$x$35$$35$756 () Int)
(declare-fun GHC.Classes.$61$$61$ () Int)
(declare-fun ds_d5BV () Int)
(declare-fun Data.ByteString.Internal.Type.$36$WBS () Int)
(declare-fun GHC.Types.TrNameD () Int)
(declare-fun VV$35$$35$F$35$$35$9 () Int)
(declare-fun GHC.Types.EQ () Int)
(declare-fun Data.ByteString.Lazy.Internal.$36$WChunk () Int)
(declare-fun lq_anf$36$$35$$35$7205759403792815212$35$$35$d5CA () Int)
(declare-fun GHC.Float.tanh () Int)
(declare-fun lq_tmp$36$x$35$$35$580 () Int)
(declare-fun lq_anf$36$$35$$35$7205759403792815227$35$$35$d5CP () Int)
(declare-fun Data.Semigroup.Internal.Dual () Int)
(declare-fun lq_anf$36$$35$$35$7205759403792815201$35$$35$d5Cp () Str)
(declare-fun VV$35$$35$F$35$$35$8 () Int)
(declare-fun Data.Complex.$58$$43$ () Int)
(declare-fun System.Posix.Types.Fd () Int)
(declare-fun GHC.TypeNats.C$58$KnownNat () Int)
(declare-fun Data.Typeable.Internal.SomeTypeRep () Int)
(declare-fun lit$36$RefinementHelper () Str)
(declare-fun GHC.Maybe.Nothing () Int)
(declare-fun GHC.Types.LT () Int)
(declare-fun VV$35$$35$F$35$$35$15 () Int)
(declare-fun Data.Tuple.snd () Int)
(declare-fun Control.Concurrent.Chan.$36$WChan () Int)
(declare-fun lq_tmp$36$x$35$$35$506 () Int)
(declare-fun GHC.Types.False () Bool)
(declare-fun maximum () Int)
(declare-fun GHC.Stack.Types.SrcLoc () Int)
(declare-fun GHC.Word.W8$35$ () Int)
(declare-fun lq_karg$36$n$35$$35$a1sd$35$$35$k_$35$$35$848 () Int)
(declare-fun GHC.Base.$58$$124$ () Int)
(declare-fun GHC.Types.GT () Int)
(declare-fun GHC.Real.mod () Int)
(declare-fun Data.Type.Equality.Refl () Int)
(declare-fun VV$35$$35$F$35$$35$14 () Int)
(declare-fun GHC.Classes.not () Int)
(declare-fun Control.Monad.Trans.Except.ExceptT () Int)
(declare-fun lq_anf$36$$35$$35$7205759403792815222$35$$35$d5CK () Int)
(declare-fun Data.Text.Internal.Text () Int)
(declare-fun GHC.Tuple.$40$$41$ () Int)
(declare-fun GHC.Types.Eq$35$ () Int)
(declare-fun lq_karg$36$n$35$$35$a1sd$35$$35$k_$35$$35$810 () Int)
(declare-fun GHC.Generics.M1 () Int)
(declare-fun lq_tmp$36$x$35$$35$504 () Int)
(declare-fun GHC.Float.cosh () Int)
(declare-fun Protolude.Panic.FatalError () Int)
(declare-fun RefinementHelper.die () Int)
(declare-fun lq_karg$36$lq_anf$36$$35$$35$7205759403792815231$35$$35$d5CT$35$$35$k_$35$$35$848 () Bool)
(declare-fun lq_karg$36$lq_anf$36$$35$$35$7205759403792815233$35$$35$d5CV$35$$35$k_$35$$35$848 () Str)
(declare-fun liquid_internal_this () Int)
(declare-fun snd () Int)
(declare-fun GHC.Err.error () Int)
(declare-fun VV$35$$35$F$35$$35$16 () Str)
(declare-fun Data.Semigroup.Internal.Product () Int)
(declare-fun GHC.Classes.$36$fOrdInt () Int)
(declare-fun lq_tmp$36$x$35$$35$505 () Int)
(declare-fun GHC.Float.tan () Int)
(declare-fun GHC.Float.acos () Int)
(declare-fun len () Int)
(declare-fun GHC.Classes.$60$ () Int)
(declare-fun GHC.Num.Integer.IP () Int)
(declare-fun Data.Typeable.Internal.C$58$Typeable () Int)
(declare-fun GHC.Classes.$62$$61$ () Int)
(declare-fun addrLen () Int)
(declare-fun cast_as_int () Int)
(declare-fun Data.Monoid.First () Int)
(declare-fun GHC.Maybe.Just () Int)
(declare-fun Data.ByteString.Lazy.Internal.Empty () Int)
(declare-fun GHC.IO.IOMode.ReadWriteMode () Int)
(declare-fun GHC.ExecutionStack.Internal.Location () Int)
(declare-fun GHC.Real.divMod () Int)
(declare-fun lq_anf$36$$35$$35$7205759403792815197$35$$35$d5Cl () Str)
(declare-fun GHC.Classes.$62$ () Int)
(declare-fun cast_as () Int)
(declare-fun VV$35$$35$F$35$$35$13 () Int)
(declare-fun Data.Monoid.Ap () Int)
(declare-fun GHC.Float.pi () Int)
(declare-fun GHC.Float.acosh () Int)
(declare-fun Data.Functor.Const.Const () Int)
(declare-fun GHC.Classes.min () Int)
(declare-fun GHC.Num.Integer.IS () Int)
(declare-fun VV$35$$35$F$35$$35$12 () Int)
(declare-fun GHC.Classes.$38$$38$ () Int)
(declare-fun GHC.Float.sqrt () Int)
(declare-fun GHC.Float.logBase () Int)
(declare-fun GHC.Float.sinh () Int)
(declare-fun Data.Functor.Identity.Identity () Int)
(declare-fun GHC.Real.quotRem () Int)
(declare-fun GHC.Classes.max () Int)
(declare-fun papp3 () Int)
(declare-fun lq_anf$36$$35$$35$7205759403792815232$35$$35$d5CU () Bool)
(declare-fun GHC.Real.div () Int)
(declare-fun GHC.Real.$94$ () Int)
(declare-fun GHC.Types.TrNameS () Int)
(declare-fun fst () Int)
(declare-fun GHC.Exception.Type.SomeException () Int)
(declare-fun Control.Concurrent.Chan.Chan () Int)
(declare-fun Control.Concurrent.QSem.QSem () Int)
(declare-fun lq_anf$36$$35$$35$7205759403792815200$35$$35$d5Co () Str)
(declare-fun GHC.IO.IOMode.WriteMode () Int)
(declare-fun lq_anf$36$$35$$35$7205759403792815199$35$$35$d5Cn () Str)
(declare-fun lit$36$error () Str)
(declare-fun papp2 () Int)
(declare-fun lq_anf$36$$35$$35$7205759403792815224$35$$35$d5CM () Int)
(declare-fun GHC.TypeLits.C$58$KnownSymbol () Int)
(declare-fun GHC.Num.$45$ () Int)
(declare-fun GHC.IO.IOMode.AppendMode () Int)
(declare-fun lq_anf$36$$35$$35$7205759403792815226$35$$35$d5CO () Int)
(declare-fun GHC.ExecutionStack.Internal.SrcLoc () Int)
(declare-fun GHC.Types.C$35$ () Int)
(declare-fun lq_anf$36$$35$$35$7205759403792815214$35$$35$d5CC () Int)
(declare-fun Data.Complex.$36$W$58$$43$ () Int)
(declare-fun papp1 () Int)
(declare-fun Data.Tuple.fst () Int)
(declare-fun lq_karg$36$lq_anf$36$$35$$35$7205759403792815229$35$$35$d5CR$35$$35$k_$35$$35$810 () Int)
(declare-fun lq_anf$36$$35$$35$7205759403792815233$35$$35$d5CV () Str)
(declare-fun GHC.IO.MaskedUninterruptible () Int)
(declare-fun lit$36$grfn$45$1.0.0.0$45$inplace () Str)
(declare-fun Data.Text.Internal.Lazy.$36$WChunk () Int)
(declare-fun lq_tmp$36$x$35$$35$856 () Int)
(declare-fun lq_anf$36$$35$$35$7205759403792815231$35$$35$d5CT () Bool)
(declare-fun lq_anf$36$$35$$35$7205759403792815225$35$$35$d5CN () Int)
(declare-fun GHC.Float.asinh () Int)
(declare-fun GHC.Generics.Comp1 () Int)
(declare-fun GHC.IO.MaskedInterruptible () Int)
(declare-fun GHC.Classes.$47$$61$ () Int)
(declare-fun Data.Monoid.Last () Int)
(declare-fun lq_karg$36$lq_anf$36$$35$$35$7205759403792815230$35$$35$d5CS$35$$35$k_$35$$35$810 () Int)
(declare-fun GHC.Float.cos () Int)
(declare-fun lq_tmp$36$x$35$$35$857 () Int)
(declare-fun GHC.Float.exp () Int)
(declare-fun lq_karg$36$VV$35$$35$643$35$$35$k_$35$$35$644 () Int)
(declare-fun lq_karg$36$lq_anf$36$$35$$35$7205759403792815230$35$$35$d5CS$35$$35$k_$35$$35$848 () Int)
(declare-fun lq_anf$36$$35$$35$7205759403792815234$35$$35$d5CW () Str)
(declare-fun papp7 () Int)
(declare-fun GHC.Num.$36$fNumInt () Int)
(declare-fun lq_anf$36$$35$$35$7205759403792815215$35$$35$d5CD () Int)
(declare-fun GHC.Types.$91$$93$ () Int)
(declare-fun RefinementHelper.$36$trModule () Int)
(declare-fun GHC.Real.toInteger () Int)
(declare-fun lq_anf$36$$35$$35$7205759403792815210$35$$35$d5Cy () Int)
(declare-fun GHC.Real.$58$$37$ () Int)
(declare-fun GHC.Stack.Types.EmptyCallStack () Int)
(declare-fun GHC.Real.rem () Int)
(declare-fun papp6 () Int)
(declare-fun Data.Text.Internal.Lazy.Chunk () Int)
(declare-fun Data.Text.Internal.Lazy.Empty () Int)
(declare-fun RefinementHelper.intsGte2 () Int)
(declare-fun lq_anf$36$$35$$35$7205759403792815206$35$$35$d5Cu () Int)
(declare-fun GHC.Stack.Types.emptyCallStack () Int)
(declare-fun GHC.Classes.C$58$IP () Int)
(declare-fun lq_anf$36$$35$$35$7205759403792815211$35$$35$d5Cz () Int)
(declare-fun Control.Applicative.ZipList () Int)
(declare-fun GHC.CString.unpackCString$35$ () Int)
(declare-fun papp5 () Int)
(declare-fun GHC.Num.$42$ () Int)
(declare-fun lq_tmp$36$x$35$$35$838 () Int)
(declare-fun GHC.Classes.$60$$61$ () Int)
(declare-fun lq_anf$36$$35$$35$7205759403792815207$35$$35$d5Cv () Int)
(declare-fun GHC.Word.W32$35$ () Int)
(declare-fun lq_karg$36$lq_anf$36$$35$$35$7205759403792815232$35$$35$d5CU$35$$35$k_$35$$35$810 () Bool)
(declare-fun GHC.Classes.$124$$124$ () Int)
(declare-fun GHC.Tuple.$40$$44$$41$ () Int)
(declare-fun product () Int)
(declare-fun papp4 () Int)
(declare-fun lq_anf$36$$35$$35$7205759403792815209$35$$35$d5Cx () Int)
(declare-fun Control.Concurrent.QSemN.QSemN () Int)
(declare-fun Data.Text.Encoding.Error.EncodeError () Int)
(declare-fun RefinementHelper.pow2 () Int)
(declare-fun lq_karg$36$VV$35$$35$847$35$$35$k_$35$$35$848 () Int)
(declare-fun GHC.Num.$43$ () Int)
(declare-fun Data.Semigroup.Internal.All () Int)
(declare-fun lq_anf$36$$35$$35$7205759403792815223$35$$35$d5CL () Int)
(declare-fun apply$35$$35$15 (Int (_ BitVec 32)) Int)
(declare-fun apply$35$$35$4 (Int Int) (_ BitVec 64))
(declare-fun apply$35$$35$20 (Int (_ BitVec 64)) Int)
(declare-fun apply$35$$35$3 (Int Int) (_ BitVec 32))
(declare-fun apply$35$$35$18 (Int (_ BitVec 32)) (_ BitVec 32))
(declare-fun apply$35$$35$24 (Int (_ BitVec 64)) (_ BitVec 64))
(declare-fun apply$35$$35$19 (Int (_ BitVec 32)) (_ BitVec 64))
(declare-fun apply$35$$35$6 (Int Bool) Bool)
(declare-fun apply$35$$35$23 (Int (_ BitVec 64)) (_ BitVec 32))
(declare-fun apply$35$$35$0 (Int Int) Int)
(declare-fun apply$35$$35$12 (Int Str) Str)
(declare-fun apply$35$$35$7 (Int Bool) Str)
(declare-fun apply$35$$35$11 (Int Str) Bool)
(declare-fun apply$35$$35$17 (Int (_ BitVec 32)) Str)
(declare-fun apply$35$$35$13 (Int Str) (_ BitVec 32))
(declare-fun apply$35$$35$22 (Int (_ BitVec 64)) Str)
(declare-fun apply$35$$35$14 (Int Str) (_ BitVec 64))
(declare-fun apply$35$$35$16 (Int (_ BitVec 32)) Bool)
(declare-fun apply$35$$35$8 (Int Bool) (_ BitVec 32))
(declare-fun apply$35$$35$21 (Int (_ BitVec 64)) Bool)
(declare-fun apply$35$$35$9 (Int Bool) (_ BitVec 64))
(declare-fun apply$35$$35$5 (Int Bool) Int)
(declare-fun apply$35$$35$1 (Int Int) Bool)
(declare-fun apply$35$$35$2 (Int Int) Str)
(declare-fun apply$35$$35$10 (Int Str) Int)
(declare-fun coerce$35$$35$15 ((_ BitVec 32)) Int)
(declare-fun coerce$35$$35$4 (Int) (_ BitVec 64))
(declare-fun coerce$35$$35$20 ((_ BitVec 64)) Int)
(declare-fun coerce$35$$35$3 (Int) (_ BitVec 32))
(declare-fun coerce$35$$35$18 ((_ BitVec 32)) (_ BitVec 32))
(declare-fun coerce$35$$35$24 ((_ BitVec 64)) (_ BitVec 64))
(declare-fun coerce$35$$35$19 ((_ BitVec 32)) (_ BitVec 64))
(declare-fun coerce$35$$35$6 (Bool) Bool)
(declare-fun coerce$35$$35$23 ((_ BitVec 64)) (_ BitVec 32))
(declare-fun coerce$35$$35$0 (Int) Int)
(declare-fun coerce$35$$35$12 (Str) Str)
(declare-fun coerce$35$$35$7 (Bool) Str)
(declare-fun coerce$35$$35$11 (Str) Bool)
(declare-fun coerce$35$$35$17 ((_ BitVec 32)) Str)
(declare-fun coerce$35$$35$13 (Str) (_ BitVec 32))
(declare-fun coerce$35$$35$22 ((_ BitVec 64)) Str)
(declare-fun coerce$35$$35$14 (Str) (_ BitVec 64))
(declare-fun coerce$35$$35$16 ((_ BitVec 32)) Bool)
(declare-fun coerce$35$$35$8 (Bool) (_ BitVec 32))
(declare-fun coerce$35$$35$21 ((_ BitVec 64)) Bool)
(declare-fun coerce$35$$35$9 (Bool) (_ BitVec 64))
(declare-fun coerce$35$$35$5 (Bool) Int)
(declare-fun coerce$35$$35$1 (Int) Bool)
(declare-fun coerce$35$$35$2 (Int) Str)
(declare-fun coerce$35$$35$10 (Str) Int)
(declare-fun smt_lambda$35$$35$15 ((_ BitVec 32) Int) Int)
(declare-fun smt_lambda$35$$35$4 (Int (_ BitVec 64)) Int)
(declare-fun smt_lambda$35$$35$20 ((_ BitVec 64) Int) Int)
(declare-fun smt_lambda$35$$35$3 (Int (_ BitVec 32)) Int)
(declare-fun smt_lambda$35$$35$18 ((_ BitVec 32) (_ BitVec 32)) Int)
(declare-fun smt_lambda$35$$35$24 ((_ BitVec 64) (_ BitVec 64)) Int)
(declare-fun smt_lambda$35$$35$19 ((_ BitVec 32) (_ BitVec 64)) Int)
(declare-fun smt_lambda$35$$35$6 (Bool Bool) Int)
(declare-fun smt_lambda$35$$35$23 ((_ BitVec 64) (_ BitVec 32)) Int)
(declare-fun smt_lambda$35$$35$0 (Int Int) Int)
(declare-fun smt_lambda$35$$35$12 (Str Str) Int)
(declare-fun smt_lambda$35$$35$7 (Bool Str) Int)
(declare-fun smt_lambda$35$$35$11 (Str Bool) Int)
(declare-fun smt_lambda$35$$35$17 ((_ BitVec 32) Str) Int)
(declare-fun smt_lambda$35$$35$13 (Str (_ BitVec 32)) Int)
(declare-fun smt_lambda$35$$35$22 ((_ BitVec 64) Str) Int)
(declare-fun smt_lambda$35$$35$14 (Str (_ BitVec 64)) Int)
(declare-fun smt_lambda$35$$35$16 ((_ BitVec 32) Bool) Int)
(declare-fun smt_lambda$35$$35$8 (Bool (_ BitVec 32)) Int)
(declare-fun smt_lambda$35$$35$21 ((_ BitVec 64) Bool) Int)
(declare-fun smt_lambda$35$$35$9 (Bool (_ BitVec 64)) Int)
(declare-fun smt_lambda$35$$35$5 (Bool Int) Int)
(declare-fun smt_lambda$35$$35$1 (Int Bool) Int)
(declare-fun smt_lambda$35$$35$2 (Int Str) Int)
(declare-fun smt_lambda$35$$35$10 (Str Int) Int)
(declare-fun lam_arg$35$$35$1$35$$35$15 () (_ BitVec 32))
(declare-fun lam_arg$35$$35$2$35$$35$15 () (_ BitVec 32))
(declare-fun lam_arg$35$$35$3$35$$35$15 () (_ BitVec 32))
(declare-fun lam_arg$35$$35$4$35$$35$15 () (_ BitVec 32))
(declare-fun lam_arg$35$$35$5$35$$35$15 () (_ BitVec 32))
(declare-fun lam_arg$35$$35$6$35$$35$15 () (_ BitVec 32))
(declare-fun lam_arg$35$$35$7$35$$35$15 () (_ BitVec 32))
(declare-fun lam_arg$35$$35$1$35$$35$20 () (_ BitVec 64))
(declare-fun lam_arg$35$$35$2$35$$35$20 () (_ BitVec 64))
(declare-fun lam_arg$35$$35$3$35$$35$20 () (_ BitVec 64))
(declare-fun lam_arg$35$$35$4$35$$35$20 () (_ BitVec 64))
(declare-fun lam_arg$35$$35$5$35$$35$20 () (_ BitVec 64))
(declare-fun lam_arg$35$$35$6$35$$35$20 () (_ BitVec 64))
(declare-fun lam_arg$35$$35$7$35$$35$20 () (_ BitVec 64))
(declare-fun lam_arg$35$$35$1$35$$35$0 () Int)
(declare-fun lam_arg$35$$35$2$35$$35$0 () Int)
(declare-fun lam_arg$35$$35$3$35$$35$0 () Int)
(declare-fun lam_arg$35$$35$4$35$$35$0 () Int)
(declare-fun lam_arg$35$$35$5$35$$35$0 () Int)
(declare-fun lam_arg$35$$35$6$35$$35$0 () Int)
(declare-fun lam_arg$35$$35$7$35$$35$0 () Int)
(declare-fun lam_arg$35$$35$1$35$$35$5 () Bool)
(declare-fun lam_arg$35$$35$2$35$$35$5 () Bool)
(declare-fun lam_arg$35$$35$3$35$$35$5 () Bool)
(declare-fun lam_arg$35$$35$4$35$$35$5 () Bool)
(declare-fun lam_arg$35$$35$5$35$$35$5 () Bool)
(declare-fun lam_arg$35$$35$6$35$$35$5 () Bool)
(declare-fun lam_arg$35$$35$7$35$$35$5 () Bool)
(declare-fun lam_arg$35$$35$1$35$$35$10 () Str)
(declare-fun lam_arg$35$$35$2$35$$35$10 () Str)
(declare-fun lam_arg$35$$35$3$35$$35$10 () Str)
(declare-fun lam_arg$35$$35$4$35$$35$10 () Str)
(declare-fun lam_arg$35$$35$5$35$$35$10 () Str)
(declare-fun lam_arg$35$$35$6$35$$35$10 () Str)
(declare-fun lam_arg$35$$35$7$35$$35$10 () Str)
(assert (distinct GHC.IO.MaskedInterruptible GHC.IO.MaskedUninterruptible GHC.IO.Unmasked))

(assert (distinct lit$36$grfn$45$1.0.0.0$45$inplace lit$36$error lit$36$RefinementHelper lit$36$Invalid lit$36$src$47$RefinementHelper.hs))


(assert (distinct GHC.Types.False GHC.Types.True))


(assert (distinct GHC.IO.IOMode.AppendMode GHC.IO.IOMode.WriteMode GHC.IO.IOMode.ReadWriteMode GHC.IO.IOMode.ReadMode))


(assert (distinct GHC.Types.GT GHC.Types.LT GHC.Types.EQ))
(assert (= (strLen lit$36$src$47$RefinementHelper.hs) 23))
(assert (= (strLen lit$36$Invalid) 7))
(assert (= (strLen lit$36$RefinementHelper) 16))
(assert (= (strLen lit$36$error) 5))
(assert (= (strLen lit$36$grfn$45$1.0.0.0$45$inplace) 20))
(push 1)
(define-fun b$36$$35$$35$128 () Bool (and (= lq_anf$36$$35$$35$7205759403792815220$35$$35$d5CI ds_d5BV) (>= lq_anf$36$$35$$35$7205759403792815220$35$$35$d5CI 0)))
(define-fun b$36$$35$$35$98 () Bool (= lq_anf$36$$35$$35$7205759403792815197$35$$35$d5Cl lit$36$error))
(define-fun b$36$$35$$35$130 () Bool (and (= lq_anf$36$$35$$35$7205759403792815220$35$$35$d5CI ds_d5BV) (= lq_anf$36$$35$$35$7205759403792815220$35$$35$d5CI ds_d5BW) (= lq_anf$36$$35$$35$7205759403792815220$35$$35$d5CI ds_d5BW) (>= lq_anf$36$$35$$35$7205759403792815220$35$$35$d5CI 0)))
(define-fun b$36$$35$$35$99 () Bool (and (= (apply$35$$35$10 (as len Int) lq_anf$36$$35$$35$7205759403792815198$35$$35$d5Cm) (strLen lq_anf$36$$35$$35$7205759403792815197$35$$35$d5Cl)) (>= (apply$35$$35$10 (as len Int) lq_anf$36$$35$$35$7205759403792815198$35$$35$d5Cm) 0) (= lq_anf$36$$35$$35$7205759403792815198$35$$35$d5Cm lq_anf$36$$35$$35$7205759403792815197$35$$35$d5Cl)))
(define-fun b$36$$35$$35$131 () Bool (= lq_anf$36$$35$$35$7205759403792815221$35$$35$d5CJ ds_d5BW))
(define-fun b$36$$35$$35$100 () Bool (= lq_anf$36$$35$$35$7205759403792815199$35$$35$d5Cn lit$36$grfn$45$1.0.0.0$45$inplace))
(define-fun b$36$$35$$35$132 () Bool (and (= lq_anf$36$$35$$35$7205759403792815221$35$$35$d5CJ ds_d5BW) (not (= lq_anf$36$$35$$35$7205759403792815221$35$$35$d5CJ 0))))
(define-fun b$36$$35$$35$101 () Bool (and (= (apply$35$$35$10 (as len Int) lq_anf$36$$35$$35$7205759403792815200$35$$35$d5Co) (strLen lq_anf$36$$35$$35$7205759403792815199$35$$35$d5Cn)) (>= (apply$35$$35$10 (as len Int) lq_anf$36$$35$$35$7205759403792815200$35$$35$d5Co) 0) (= lq_anf$36$$35$$35$7205759403792815200$35$$35$d5Co lq_anf$36$$35$$35$7205759403792815199$35$$35$d5Cn)))
(define-fun b$36$$35$$35$133 () Bool (= lq_anf$36$$35$$35$7205759403792815222$35$$35$d5CK 2))
(define-fun b$36$$35$$35$70 () Bool (not GHC.Types.False))
(define-fun b$36$$35$$35$102 () Bool (= lq_anf$36$$35$$35$7205759403792815201$35$$35$d5Cp lit$36$RefinementHelper))
(define-fun b$36$$35$$35$134 () Bool (= lq_anf$36$$35$$35$7205759403792815223$35$$35$d5CL lq_anf$36$$35$$35$7205759403792815222$35$$35$d5CK))
(define-fun b$36$$35$$35$103 () Bool (and (= (apply$35$$35$10 (as len Int) lq_anf$36$$35$$35$7205759403792815202$35$$35$d5Cq) (strLen lq_anf$36$$35$$35$7205759403792815201$35$$35$d5Cp)) (>= (apply$35$$35$10 (as len Int) lq_anf$36$$35$$35$7205759403792815202$35$$35$d5Cq) 0) (= lq_anf$36$$35$$35$7205759403792815202$35$$35$d5Cq lq_anf$36$$35$$35$7205759403792815201$35$$35$d5Cp)))
(define-fun b$36$$35$$35$135 () Bool (= lq_anf$36$$35$$35$7205759403792815224$35$$35$d5CM 1))
(define-fun b$36$$35$$35$104 () Bool (= lq_anf$36$$35$$35$7205759403792815203$35$$35$d5Cr lit$36$src$47$RefinementHelper.hs))
(define-fun b$36$$35$$35$136 () Bool (= lq_anf$36$$35$$35$7205759403792815225$35$$35$d5CN lq_anf$36$$35$$35$7205759403792815224$35$$35$d5CM))
(define-fun b$36$$35$$35$105 () Bool (and (= (apply$35$$35$10 (as len Int) lq_anf$36$$35$$35$7205759403792815204$35$$35$d5Cs) (strLen lq_anf$36$$35$$35$7205759403792815203$35$$35$d5Cr)) (>= (apply$35$$35$10 (as len Int) lq_anf$36$$35$$35$7205759403792815204$35$$35$d5Cs) 0) (= lq_anf$36$$35$$35$7205759403792815204$35$$35$d5Cs lq_anf$36$$35$$35$7205759403792815203$35$$35$d5Cr)))
(define-fun b$36$$35$$35$137 () Bool (= lq_anf$36$$35$$35$7205759403792815226$35$$35$d5CO (- ds_d5BV lq_anf$36$$35$$35$7205759403792815225$35$$35$d5CN)))
(define-fun b$36$$35$$35$106 () Bool (= lq_anf$36$$35$$35$7205759403792815205$35$$35$d5Ct 52))
(define-fun b$36$$35$$35$138 () Bool (and (= lq_anf$36$$35$$35$7205759403792815227$35$$35$d5CP (apply$35$$35$0 RefinementHelper.pow2 lq_anf$36$$35$$35$7205759403792815226$35$$35$d5CO)) (= lq_anf$36$$35$$35$7205759403792815227$35$$35$d5CP (ite (= 0 lq_anf$36$$35$$35$7205759403792815226$35$$35$d5CO) 1 (Z3_OP_MUL 2 (apply$35$$35$0 RefinementHelper.pow2 (- lq_anf$36$$35$$35$7205759403792815226$35$$35$d5CO 1))))) (>= lq_anf$36$$35$$35$7205759403792815227$35$$35$d5CP 0)))
(define-fun b$36$$35$$35$107 () Bool (= lq_anf$36$$35$$35$7205759403792815206$35$$35$d5Cu lq_anf$36$$35$$35$7205759403792815205$35$$35$d5Ct))
(define-fun b$36$$35$$35$139 () Bool (and (= lq_anf$36$$35$$35$7205759403792815221$35$$35$d5CJ 0) (= lq_anf$36$$35$$35$7205759403792815221$35$$35$d5CJ ds_d5BW)))
(define-fun b$36$$35$$35$108 () Bool (= lq_anf$36$$35$$35$7205759403792815207$35$$35$d5Cv 7))
(define-fun b$36$$35$$35$140 () Bool (= lq_anf$36$$35$$35$7205759403792815228$35$$35$d5CQ 1))
(define-fun b$36$$35$$35$109 () Bool (= lq_anf$36$$35$$35$7205759403792815208$35$$35$d5Cw lq_anf$36$$35$$35$7205759403792815207$35$$35$d5Cv))
(define-fun b$36$$35$$35$110 () Bool (= lq_anf$36$$35$$35$7205759403792815209$35$$35$d5Cx 52))
(define-fun b$36$$35$$35$142 () Bool (= lq_anf$36$$35$$35$7205759403792815229$35$$35$d5CR 2))
(define-fun b$36$$35$$35$174 () Bool (and (= VV$35$$35$F$35$$35$1 lq_tmp$36$x$35$$35$856) (<= 2 VV$35$$35$F$35$$35$1)))
(define-fun b$36$$35$$35$111 () Bool (= lq_anf$36$$35$$35$7205759403792815210$35$$35$d5Cy lq_anf$36$$35$$35$7205759403792815209$35$$35$d5Cx))
(define-fun b$36$$35$$35$143 () Bool (= lq_anf$36$$35$$35$7205759403792815230$35$$35$d5CS lq_anf$36$$35$$35$7205759403792815229$35$$35$d5CR))
(define-fun b$36$$35$$35$112 () Bool (= lq_anf$36$$35$$35$7205759403792815211$35$$35$d5Cz 12))
(define-fun b$36$$35$$35$144 () Bool (= lq_anf$36$$35$$35$7205759403792815231$35$$35$d5CT (< n$35$$35$a1sd lq_anf$36$$35$$35$7205759403792815230$35$$35$d5CS)))
(define-fun b$36$$35$$35$113 () Bool (= lq_anf$36$$35$$35$7205759403792815212$35$$35$d5CA lq_anf$36$$35$$35$7205759403792815211$35$$35$d5Cz))
(define-fun b$36$$35$$35$145 () Bool (and (= lq_anf$36$$35$$35$7205759403792815232$35$$35$d5CU (< n$35$$35$a1sd lq_anf$36$$35$$35$7205759403792815230$35$$35$d5CS)) (= lq_anf$36$$35$$35$7205759403792815232$35$$35$d5CU lq_anf$36$$35$$35$7205759403792815231$35$$35$d5CT)))
(define-fun b$36$$35$$35$146 () Bool (and (= lq_anf$36$$35$$35$7205759403792815232$35$$35$d5CU (< n$35$$35$a1sd lq_anf$36$$35$$35$7205759403792815230$35$$35$d5CS)) (= lq_anf$36$$35$$35$7205759403792815232$35$$35$d5CU lq_anf$36$$35$$35$7205759403792815231$35$$35$d5CT)))
(define-fun b$36$$35$$35$147 () Bool (and (not lq_anf$36$$35$$35$7205759403792815232$35$$35$d5CU) (= lq_anf$36$$35$$35$7205759403792815232$35$$35$d5CU (< n$35$$35$a1sd lq_anf$36$$35$$35$7205759403792815230$35$$35$d5CS)) (= lq_anf$36$$35$$35$7205759403792815232$35$$35$d5CU lq_anf$36$$35$$35$7205759403792815231$35$$35$d5CT)))
(define-fun b$36$$35$$35$179 () Bool (= VV$35$$35$F$35$$35$9 n$35$$35$a1sd))
(define-fun b$36$$35$$35$116 () Bool (and (= (apply$35$$35$2 (as fst Int) lq_anf$36$$35$$35$7205759403792815214$35$$35$d5CC) lq_anf$36$$35$$35$7205759403792815198$35$$35$d5Cm) (= (apply$35$$35$0 (as snd Int) lq_anf$36$$35$$35$7205759403792815214$35$$35$d5CC) lq_anf$36$$35$$35$7205759403792815213$35$$35$d5CB) (= (apply$35$$35$2 (as x_Tuple21 Int) lq_anf$36$$35$$35$7205759403792815214$35$$35$d5CC) lq_anf$36$$35$$35$7205759403792815198$35$$35$d5Cm) (= (apply$35$$35$0 (as x_Tuple22 Int) lq_anf$36$$35$$35$7205759403792815214$35$$35$d5CC) lq_anf$36$$35$$35$7205759403792815213$35$$35$d5CB)))
(define-fun b$36$$35$$35$148 () Bool (and (= lq_anf$36$$35$$35$7205759403792815232$35$$35$d5CU (< n$35$$35$a1sd lq_anf$36$$35$$35$7205759403792815230$35$$35$d5CS)) (= lq_anf$36$$35$$35$7205759403792815232$35$$35$d5CU lq_anf$36$$35$$35$7205759403792815231$35$$35$d5CT)))
(define-fun b$36$$35$$35$180 () Bool (= VV$35$$35$F$35$$35$12 lq_anf$36$$35$$35$7205759403792815228$35$$35$d5CQ))
(define-fun b$36$$35$$35$85 () Bool GHC.Types.True)
(define-fun b$36$$35$$35$149 () Bool (and lq_anf$36$$35$$35$7205759403792815232$35$$35$d5CU (= lq_anf$36$$35$$35$7205759403792815232$35$$35$d5CU (< n$35$$35$a1sd lq_anf$36$$35$$35$7205759403792815230$35$$35$d5CS)) (= lq_anf$36$$35$$35$7205759403792815232$35$$35$d5CU lq_anf$36$$35$$35$7205759403792815231$35$$35$d5CT)))
(define-fun b$36$$35$$35$181 () Bool (= VV$35$$35$F$35$$35$13 (Z3_OP_MUL lq_anf$36$$35$$35$7205759403792815223$35$$35$d5CL lq_anf$36$$35$$35$7205759403792815227$35$$35$d5CP)))
(define-fun b$36$$35$$35$150 () Bool (= lq_anf$36$$35$$35$7205759403792815233$35$$35$d5CV lit$36$Invalid))
(define-fun b$36$$35$$35$182 () Bool (and (= VV$35$$35$F$35$$35$14 lq_anf$36$$35$$35$7205759403792815226$35$$35$d5CO) (= VV$35$$35$F$35$$35$14 (- ds_d5BV lq_anf$36$$35$$35$7205759403792815225$35$$35$d5CN))))
(define-fun b$36$$35$$35$151 () Bool (and (= (apply$35$$35$10 (as len Int) lq_anf$36$$35$$35$7205759403792815234$35$$35$d5CW) (strLen lq_anf$36$$35$$35$7205759403792815233$35$$35$d5CV)) (>= (apply$35$$35$10 (as len Int) lq_anf$36$$35$$35$7205759403792815234$35$$35$d5CW) 0) (= lq_anf$36$$35$$35$7205759403792815234$35$$35$d5CW lq_anf$36$$35$$35$7205759403792815233$35$$35$d5CV)))
(define-fun b$36$$35$$35$120 () Bool (= lq_anf$36$$35$$35$7205759403792815216$35$$35$d5CE lit$36$grfn$45$1.0.0.0$45$inplace))
(define-fun b$36$$35$$35$184 () Bool false)
(define-fun b$36$$35$$35$122 () Bool (= lq_anf$36$$35$$35$7205759403792815218$35$$35$d5CG lit$36$RefinementHelper))
(define-fun b$36$$35$$35$126 () Bool (>= ds_d5BV 0))
(define-fun b$36$$35$$35$127 () Bool (and (= lq_anf$36$$35$$35$7205759403792815220$35$$35$d5CI ds_d5BV) (>= lq_anf$36$$35$$35$7205759403792815220$35$$35$d5CI 0)))
(push 1)
(assert (and true b$36$$35$$35$70 b$36$$35$$35$85 b$36$$35$$35$120 b$36$$35$$35$122))
(push 1)
(assert (not (= 0 1)))
(check-sat)
; SMT Says: Sat
(pop 1)
(pop 1)
(push 1)
(push 1)
(assert (and true b$36$$35$$35$70 b$36$$35$$35$174 b$36$$35$$35$85))
(push 1)
(assert (not (<= 2 VV$35$$35$F$35$$35$1)))
(check-sat)
; SMT Says: Unsat
(pop 1)
(pop 1)
(push 1)
(assert (and false b$36$$35$$35$70 b$36$$35$$35$142 b$36$$35$$35$143 b$36$$35$$35$144 b$36$$35$$35$145 b$36$$35$$35$148 b$36$$35$$35$85 b$36$$35$$35$149 b$36$$35$$35$150 b$36$$35$$35$151))
(push 1)
(assert (not (= VV$35$$35$F$35$$35$2 n$35$$35$a1sd)))
(check-sat)
; SMT Says: Unsat
(pop 1)
(pop 1)
(push 1)
(assert (and false b$36$$35$$35$70 b$36$$35$$35$142 b$36$$35$$35$143 b$36$$35$$35$144 b$36$$35$$35$145 b$36$$35$$35$148 b$36$$35$$35$85 b$36$$35$$35$149 b$36$$35$$35$150 b$36$$35$$35$151))
(push 1)
(assert (not (<= 2 VV$35$$35$F$35$$35$3)))
(check-sat)
; SMT Says: Unsat
(pop 1)
(pop 1)
(push 1)
(assert (and (exists ((lq_karg$36$lq_anf$36$$35$$35$7205759403792815231$35$$35$d5CT$35$$35$k_$35$$35$810 Bool) (lq_karg$36$VV$35$$35$809$35$$35$k_$35$$35$810 Int) (lq_karg$36$n$35$$35$a1sd$35$$35$k_$35$$35$810 Int) (lq_karg$36$lq_anf$36$$35$$35$7205759403792815229$35$$35$d5CR$35$$35$k_$35$$35$810 Int) (lq_karg$36$lq_anf$36$$35$$35$7205759403792815230$35$$35$d5CS$35$$35$k_$35$$35$810 Int) (lq_karg$36$lq_anf$36$$35$$35$7205759403792815232$35$$35$d5CU$35$$35$k_$35$$35$810 Bool)) (and (= lq_karg$36$VV$35$$35$809$35$$35$k_$35$$35$810 VV$35$$35$F$35$$35$7) (= lq_karg$36$lq_anf$36$$35$$35$7205759403792815229$35$$35$d5CR$35$$35$k_$35$$35$810 lq_anf$36$$35$$35$7205759403792815229$35$$35$d5CR) (= lq_karg$36$lq_anf$36$$35$$35$7205759403792815230$35$$35$d5CS$35$$35$k_$35$$35$810 lq_anf$36$$35$$35$7205759403792815230$35$$35$d5CS) (= lq_karg$36$lq_anf$36$$35$$35$7205759403792815231$35$$35$d5CT$35$$35$k_$35$$35$810 lq_anf$36$$35$$35$7205759403792815231$35$$35$d5CT) (= lq_karg$36$lq_anf$36$$35$$35$7205759403792815232$35$$35$d5CU$35$$35$k_$35$$35$810 lq_anf$36$$35$$35$7205759403792815232$35$$35$d5CU) (= lq_karg$36$n$35$$35$a1sd$35$$35$k_$35$$35$810 n$35$$35$a1sd) (exists ((VV$35$$35$F$35$$35$9 Int)) (and (= VV$35$$35$F$35$$35$9 n$35$$35$a1sd) (= lq_karg$36$VV$35$$35$809$35$$35$k_$35$$35$810 VV$35$$35$F$35$$35$9) (= lq_karg$36$lq_anf$36$$35$$35$7205759403792815229$35$$35$d5CR$35$$35$k_$35$$35$810 lq_anf$36$$35$$35$7205759403792815229$35$$35$d5CR) (= lq_karg$36$lq_anf$36$$35$$35$7205759403792815230$35$$35$d5CS$35$$35$k_$35$$35$810 lq_anf$36$$35$$35$7205759403792815230$35$$35$d5CS) (= lq_karg$36$lq_anf$36$$35$$35$7205759403792815231$35$$35$d5CT$35$$35$k_$35$$35$810 lq_anf$36$$35$$35$7205759403792815231$35$$35$d5CT) (= lq_karg$36$lq_anf$36$$35$$35$7205759403792815232$35$$35$d5CU$35$$35$k_$35$$35$810 lq_anf$36$$35$$35$7205759403792815232$35$$35$d5CU) (= lq_karg$36$n$35$$35$a1sd$35$$35$k_$35$$35$810 n$35$$35$a1sd))))) b$36$$35$$35$70 b$36$$35$$35$142 b$36$$35$$35$143 b$36$$35$$35$144 b$36$$35$$35$145 b$36$$35$$35$146 b$36$$35$$35$147 b$36$$35$$35$85))
(push 1)
(assert (not (= VV$35$$35$F$35$$35$7 n$35$$35$a1sd)))
(check-sat)
; SMT Says: Unsat
(pop 1)
(pop 1)
(push 1)
(assert (and (exists ((lq_karg$36$lq_anf$36$$35$$35$7205759403792815231$35$$35$d5CT$35$$35$k_$35$$35$810 Bool) (lq_karg$36$VV$35$$35$809$35$$35$k_$35$$35$810 Int) (lq_karg$36$n$35$$35$a1sd$35$$35$k_$35$$35$810 Int) (lq_karg$36$lq_anf$36$$35$$35$7205759403792815229$35$$35$d5CR$35$$35$k_$35$$35$810 Int) (lq_karg$36$lq_anf$36$$35$$35$7205759403792815230$35$$35$d5CS$35$$35$k_$35$$35$810 Int) (lq_karg$36$lq_anf$36$$35$$35$7205759403792815232$35$$35$d5CU$35$$35$k_$35$$35$810 Bool)) (and (= lq_karg$36$VV$35$$35$809$35$$35$k_$35$$35$810 VV$35$$35$F$35$$35$8) (= lq_karg$36$lq_anf$36$$35$$35$7205759403792815229$35$$35$d5CR$35$$35$k_$35$$35$810 lq_anf$36$$35$$35$7205759403792815229$35$$35$d5CR) (= lq_karg$36$lq_anf$36$$35$$35$7205759403792815230$35$$35$d5CS$35$$35$k_$35$$35$810 lq_anf$36$$35$$35$7205759403792815230$35$$35$d5CS) (= lq_karg$36$lq_anf$36$$35$$35$7205759403792815231$35$$35$d5CT$35$$35$k_$35$$35$810 lq_anf$36$$35$$35$7205759403792815231$35$$35$d5CT) (= lq_karg$36$lq_anf$36$$35$$35$7205759403792815232$35$$35$d5CU$35$$35$k_$35$$35$810 lq_anf$36$$35$$35$7205759403792815232$35$$35$d5CU) (= lq_karg$36$n$35$$35$a1sd$35$$35$k_$35$$35$810 n$35$$35$a1sd) (exists ((VV$35$$35$F$35$$35$9 Int)) (and (= VV$35$$35$F$35$$35$9 n$35$$35$a1sd) (= lq_karg$36$VV$35$$35$809$35$$35$k_$35$$35$810 VV$35$$35$F$35$$35$9) (= lq_karg$36$lq_anf$36$$35$$35$7205759403792815229$35$$35$d5CR$35$$35$k_$35$$35$810 lq_anf$36$$35$$35$7205759403792815229$35$$35$d5CR) (= lq_karg$36$lq_anf$36$$35$$35$7205759403792815230$35$$35$d5CS$35$$35$k_$35$$35$810 lq_anf$36$$35$$35$7205759403792815230$35$$35$d5CS) (= lq_karg$36$lq_anf$36$$35$$35$7205759403792815231$35$$35$d5CT$35$$35$k_$35$$35$810 lq_anf$36$$35$$35$7205759403792815231$35$$35$d5CT) (= lq_karg$36$lq_anf$36$$35$$35$7205759403792815232$35$$35$d5CU$35$$35$k_$35$$35$810 lq_anf$36$$35$$35$7205759403792815232$35$$35$d5CU) (= lq_karg$36$n$35$$35$a1sd$35$$35$k_$35$$35$810 n$35$$35$a1sd))))) b$36$$35$$35$70 b$36$$35$$35$142 b$36$$35$$35$143 b$36$$35$$35$144 b$36$$35$$35$145 b$36$$35$$35$146 b$36$$35$$35$147 b$36$$35$$35$85))
(push 1)
(assert (not (<= 2 VV$35$$35$F$35$$35$8)))
(check-sat)
; SMT Says: Unsat
(pop 1)
(pop 1)
(push 1)
(assert (and true b$36$$35$$35$128 b$36$$35$$35$130 b$36$$35$$35$131 b$36$$35$$35$70 b$36$$35$$35$139 b$36$$35$$35$140 b$36$$35$$35$180 b$36$$35$$35$85 b$36$$35$$35$126 b$36$$35$$35$127))
(push 1)
(assert (not (>= VV$35$$35$F$35$$35$12 0)))
(check-sat)
; SMT Says: Unsat
(pop 1)
(pop 1)
(push 1)
(assert (and true b$36$$35$$35$128 b$36$$35$$35$130 b$36$$35$$35$131 b$36$$35$$35$132 b$36$$35$$35$133 b$36$$35$$35$70 b$36$$35$$35$134 b$36$$35$$35$135 b$36$$35$$35$136 b$36$$35$$35$137 b$36$$35$$35$138 b$36$$35$$35$85 b$36$$35$$35$181 b$36$$35$$35$126 b$36$$35$$35$127))
(push 1)
(assert (not (>= VV$35$$35$F$35$$35$13 0)))
(check-sat)
; SMT Says: Unsat
(pop 1)
(pop 1)
(push 1)
(assert (and true b$36$$35$$35$128 b$36$$35$$35$130 b$36$$35$$35$131 b$36$$35$$35$132 b$36$$35$$35$133 b$36$$35$$35$70 b$36$$35$$35$134 b$36$$35$$35$135 b$36$$35$$35$136 b$36$$35$$35$137 b$36$$35$$35$85 b$36$$35$$35$182 b$36$$35$$35$126 b$36$$35$$35$127))
(push 1)
(assert (not (>= VV$35$$35$F$35$$35$14 0)))
(check-sat)
; SMT Says: Unsat
(pop 1)
(pop 1)
(push 1)
(assert (and true b$36$$35$$35$98 b$36$$35$$35$99 b$36$$35$$35$100 b$36$$35$$35$101 b$36$$35$$35$70 b$36$$35$$35$102 b$36$$35$$35$103 b$36$$35$$35$104 b$36$$35$$35$105 b$36$$35$$35$106 b$36$$35$$35$107 b$36$$35$$35$108 b$36$$35$$35$109 b$36$$35$$35$110 b$36$$35$$35$111 b$36$$35$$35$112 b$36$$35$$35$113 b$36$$35$$35$116 b$36$$35$$35$85 b$36$$35$$35$184))
(push 1)
(assert (not false))
(check-sat)
; SMT Says: Unsat
(pop 1)
(pop 1)
(pop 1)
(pop 1)
